p cnf 75 750
1 -75 -56 0
1 -75 -52 0
1 -75 21 0
1 -75 27 0
1 -75 43 0
1 -75 46 0
1 -75 51 0
1 -75 53 0
1 -75 67 0
1 -75 73 0
1 -74 -69 0
1 -74 -47 0
1 -74 -22 0
1 -74 -16 0
1 -74 -9 0
1 -74 -2 0
1 -74 3 0
1 -74 37 0
1 -74 41 0
1 -74 70 0
1 -73 -69 0
1 -73 -53 0
1 -73 -28 0
1 -73 -3 0
1 -73 7 0
1 -73 9 0
1 -73 21 0
1 -73 48 0
1 -73 56 0
1 -73 69 0
1 -72 -49 0
1 -72 -35 0
1 -72 -23 0
1 -72 -22 0
1 -72 -20 0
1 -72 -7 0
1 -72 2 0
1 -72 14 0
1 -72 69 0
1 -72 74 0
1 -71 -63 0
1 -71 -59 0
1 -71 -47 0
1 -71 -18 0
1 -71 -14 0
1 -71 -11 0
1 -71 -10 0
1 -71 6 0
1 -71 22 0
1 -71 49 0
1 -70 -57 0
1 -70 -54 0
1 -70 -38 0
1 -70 -30 0
1 -70 -26 0
1 -70 -17 0
1 -70 47 0
1 -70 52 0
1 -70 66 0
1 -70 69 0
1 -69 -45 0
1 -69 -40 0
1 -69 -25 0
1 -69 -19 0
1 -69 17 0
1 -69 42 0
1 -69 50 0
1 -69 60 0
1 -68 -52 0
1 -68 -42 0
1 -68 -24 0
1 -68 -22 0
1 -68 -16 0
1 -68 -15 0
1 -68 -10 0
1 -68 -8 0
1 -68 55 0
1 -68 71 0
1 -67 -14 0
1 -67 -9 0
1 -67 -8 0
1 -67 2 0
1 -67 17 0
1 -67 37 0
1 -67 41 0
1 -67 43 0
1 -67 68 0
1 -67 72 0
1 -66 -39 0
1 -66 -37 0
1 -66 -26 0
1 -66 -24 0
1 -66 -17 0
1 -66 -10 0
1 -66 1 0
1 -66 7 0
1 -66 33 0
1 -66 59 0
1 -65 -52 0
1 -65 -43 0
1 -65 -22 0
1 -65 -17 0
1 -65 -11 0
1 -65 12 0
1 -65 36 0
1 -65 38 0
1 -65 61 0
1 -65 63 0
1 -64 -55 0
1 -64 -49 0
1 -64 -13 0
1 -64 -6 0
1 -64 -2 0
1 -64 13 0
1 -64 26 0
1 -64 51 0
1 -64 57 0
1 -64 60 0
1 -63 -62 0
1 -63 -53 0
1 -63 1 0
1 -63 3 0
1 -63 8 0
1 -63 24 0
1 -63 48 0
1 -63 50 0
1 -63 67 0
1 -62 -50 0
1 -62 -28 0
1 -62 -2 0
1 -62 9 0
1 -62 30 0
1 -62 32 0
1 -62 53 0
1 -62 61 0
1 -62 66 0
1 -61 -45 0
1 -61 -39 0
1 -61 -38 0
1 -61 -37 0
1 -61 -34 0
1 -61 7 0
1 -61 11 0
1 -61 26 0
1 -61 47 0
1 -61 68 0
1 -60 -35 0
1 -60 -31 0
1 -60 12 0
1 -60 28 0
1 -60 29 0
1 -60 37 0
1 -60 41 0
1 -60 44 0
1 -60 70 0
1 -60 71 0
1 -59 -57 0
1 -59 -55 0
1 -59 -31 0
1 -59 -11 0
1 -59 1 0
1 -59 14 0
1 -59 40 0
1 -59 46 0
1 -59 52 0
1 -58 -51 0
1 -58 -32 0
1 -58 -18 0
1 -58 -1 0
1 -58 5 0
1 -58 12 0
1 -58 28 0
1 -58 39 0
1 -58 47 0
1 -58 50 0
1 -57 -43 0
1 -57 -33 0
1 -57 -32 0
1 -57 -30 0
1 -57 -22 0
1 -57 28 0
1 -57 33 0
1 -57 64 0
1 -56 -27 0
1 -56 -16 0
1 -56 8 0
1 -56 11 0
1 -56 15 0
1 -56 16 0
1 -56 31 0
1 -56 33 0
1 -56 57 0
1 -55 -48 0
1 -55 -26 0
1 -55 -23 0
1 -55 -9 0
1 -55 15 0
1 -55 48 0
1 -55 52 0
1 -55 56 0
1 -54 -51 0
1 -54 -37 0
1 -54 -31 0
1 -54 -24 0
1 -54 -23 0
1 -54 -9 0
1 -54 5 0
1 -54 48 0
1 -54 67 0
1 -53 -33 0
1 -53 -20 0
1 -53 7 0
1 -53 45 0
1 -53 47 0
1 -53 54 0
1 -53 61 0
1 -53 69 0
1 -52 -47 0
1 -52 -33 0
1 -52 -2 0
1 -52 8 0
1 -52 23 0
1 -52 46 0
1 -52 75 0
1 -51 -50 0
1 -51 -43 0
1 -51 -24 0
1 -51 -13 0
1 -51 25 0
1 -51 42 0
1 -51 50 0
1 -51 57 0
1 -50 -39 0
1 -50 -35 0
1 -50 -32 0
1 -50 -3 0
1 -50 10 0
1 -50 27 0
1 -50 41 0
1 -50 59 0
1 -49 -46 0
1 -49 -14 0
1 -49 -7 0
1 -49 6 0
1 -49 12 0
1 -49 23 0
1 -49 31 0
1 -49 70 0
1 -48 -44 0
1 -48 -32 0
1 -48 1 0
1 -48 7 0
1 -48 20 0
1 -48 32 0
1 -48 44 0
1 -48 51 0
1 -48 66 0
1 -47 -46 0
1 -47 -34 0
1 -47 -29 0
1 -47 -8 0
1 -47 -7 0
1 -47 6 0
1 -47 39 0
1 -46 -35 0
1 -46 -33 0
1 -46 -28 0
1 -46 5 0
1 -46 29 0
1 -46 36 0
1 -46 53 0
1 -46 67 0
1 -45 -43 0
1 -45 -34 0
1 -45 -20 0
1 -45 6 0
1 -45 25 0
1 -45 35 0
1 -45 38 0
1 -45 46 0
1 -44 -40 0
1 -44 -36 0
1 -44 -15 0
1 -44 -13 0
1 -44 3 0
1 -44 18 0
1 -44 21 0
1 -44 43 0
1 -44 73 0
1 -43 -20 0
1 -43 -13 0
1 -43 -12 0
1 -43 29 0
1 -43 51 0
1 -43 68 0
1 -42 -39 0
1 -42 -18 0
1 -42 -10 0
1 -42 -1 0
1 -42 24 0
1 -42 51 0
1 -42 60 0
1 -42 65 0
1 -42 71 0
1 -41 -18 0
1 -41 -6 0
1 -41 -4 0
1 -41 5 0
1 -41 11 0
1 -41 12 0
1 -41 31 0
1 -41 33 0
1 -41 39 0
1 -41 73 0
1 -40 -38 0
1 -40 -34 0
1 -40 -31 0
1 -40 -28 0
1 -40 -19 0
1 -40 -12 0
1 -40 16 0
1 -40 64 0
1 -39 4 0
1 -39 10 0
1 -39 19 0
1 -39 27 0
1 -39 43 0
1 -39 59 0
1 -38 -23 0
1 -38 -21 0
1 -38 -6 0
1 -38 -3 0
1 -38 18 0
1 -38 42 0
1 -38 67 0
1 -37 -32 0
1 -37 -28 0
1 -37 -5 0
1 -37 7 0
1 -37 50 0
1 -37 71 0
1 -37 74 0
1 -36 -29 0
1 -36 -26 0
1 -36 -16 0
1 -36 -7 0
1 -36 3 0
1 -36 7 0
1 -36 13 0
1 -36 51 0
1 -36 73 0
1 -35 -14 0
1 -35 -8 0
1 -35 30 0
1 -35 55 0
1 -35 63 0
1 -35 70 0
1 -34 -31 0
1 -34 -14 0
1 -34 -8 0
1 -34 49 0
1 -34 51 0
1 -34 59 0
1 -33 4 0
1 -33 6 0
1 -33 10 0
1 -33 22 0
1 -33 26 0
1 -33 65 0
1 -32 -5 0
1 -32 19 0
1 -32 24 0
1 -32 45 0
1 -32 58 0
1 -31 -21 0
1 -31 -6 0
1 -31 12 0
1 -31 27 0
1 -31 55 0
1 -30 -19 0
1 -30 -11 0
1 -30 -9 0
1 -30 12 0
1 -30 20 0
1 -30 26 0
1 -30 56 0
1 -30 62 0
1 -29 -12 0
1 -29 -4 0
1 -29 -1 0
1 -29 3 0
1 -29 7 0
1 -29 53 0
1 -29 68 0
1 -29 70 0
1 -28 -21 0
1 -28 -19 0
1 -28 6 0
1 -28 9 0
1 -28 55 0
1 -27 -21 0
1 -27 5 0
1 -27 18 0
1 -27 36 0
1 -27 39 0
1 -27 45 0
1 -27 58 0
1 -27 71 0
1 -27 75 0
1 -26 -8 0
1 -26 5 0
1 -26 21 0
1 -26 38 0
1 -26 64 0
1 -26 67 0
1 -25 -12 0
1 -25 6 0
1 -25 9 0
1 -25 21 0
1 -25 22 0
1 -25 32 0
1 -25 51 0
1 -25 61 0
1 -25 68 0
1 -24 -23 0
1 -24 19 0
1 -24 52 0
1 -24 58 0
1 -24 65 0
1 -24 66 0
1 -23 -20 0
1 -23 2 0
1 -23 17 0
1 -23 25 0
1 -23 51 0
1 -22 -18 0
1 -22 -1 0
1 -22 2 0
1 -22 18 0
1 -22 62 0
1 -21 -15 0
1 -21 19 0
1 -21 45 0
1 -21 59 0
1 -21 74 0
1 -21 75 0
1 -20 1 0
1 -20 14 0
1 -20 39 0
1 -20 60 0
1 -20 65 0
1 -19 13 0
1 -19 20 0
1 -19 31 0
1 -19 56 0
1 -19 61 0
1 -19 66 0
1 -18 -5 0
1 -18 -4 0
1 -18 34 0
1 -18 44 0
1 -18 75 0
1 -17 28 0
1 -17 38 0
1 -17 45 0
1 -17 46 0
1 -17 52 0
1 -17 54 0
1 -17 73 0
1 -16 -3 0
1 -16 11 0
1 -16 14 0
1 -16 50 0
1 -16 63 0
1 -16 75 0
1 -15 -7 0
1 -15 8 0
1 -15 18 0
1 -15 30 0
1 -15 41 0
1 -15 45 0
1 -15 48 0
1 -14 33 0
1 -14 43 0
1 -14 45 0
1 -14 63 0
1 -14 74 0
1 -13 5 0
1 -13 21 0
1 -13 22 0
1 -13 48 0
1 -13 68 0
1 -13 75 0
1 -12 -3 0
1 -12 4 0
1 -12 19 0
1 -12 25 0
1 -12 26 0
1 -12 65 0
1 -11 -5 0
1 -11 4 0
1 -11 64 0
1 -11 66 0
1 -11 70 0
1 -11 75 0
1 -10 5 0
1 -10 13 0
1 -10 26 0
1 -10 35 0
1 -10 42 0
1 -10 66 0
1 -9 14 0
1 -9 22 0
1 -9 36 0
1 -9 48 0
1 -9 60 0
1 -8 6 0
1 -8 19 0
1 -8 48 0
1 -8 55 0
1 -7 -4 0
1 -7 25 0
1 -7 34 0
1 -7 54 0
1 -7 57 0
1 -6 17 0
1 -6 28 0
1 -6 32 0
1 -6 42 0
1 -6 45 0
1 -6 64 0
1 -5 -2 0
1 -5 20 0
1 -5 44 0
1 -5 61 0
1 -5 66 0
1 -5 71 0
1 -4 9 0
1 -4 30 0
1 -4 34 0
1 -4 35 0
1 -4 40 0
1 -4 72 0
1 -3 11 0
1 -3 22 0
1 -3 39 0
1 -3 63 0
1 -3 75 0
1 -2 15 0
1 -2 21 0
1 -2 38 0
1 -2 42 0
1 -2 73 0
1 -1 12 0
1 -1 23 0
1 -1 48 0
1 -1 60 0
1 -1 68 0
1 -1 72 0
1 1 9 0
1 1 13 0
1 1 19 0
1 1 50 0
1 1 75 0
1 2 21 0
1 2 23 0
1 2 30 0
1 2 37 0
1 2 39 0
1 2 64 0
1 3 7 0
1 3 31 0
1 3 35 0
1 3 59 0
1 3 64 0
1 4 24 0
1 4 27 0
1 4 54 0
1 4 57 0
1 4 59 0
1 4 60 0
1 5 19 0
1 5 46 0
1 6 20 0
1 6 67 0
1 7 41 0
1 8 36 0
1 8 41 0
1 8 47 0
1 8 59 0
1 8 60 0
1 8 65 0
1 9 17 0
1 9 18 0
1 9 30 0
1 9 53 0
1 10 15 0
1 10 20 0
1 10 22 0
1 10 23 0
1 10 26 0
1 10 42 0
1 10 66 0
1 11 44 0
1 11 49 0
1 11 59 0
1 11 62 0
1 11 71 0
1 12 17 0
1 12 27 0
1 13 26 0
1 13 40 0
1 13 56 0
1 13 65 0
1 13 73 0
1 14 28 0
1 14 35 0
1 14 52 0
1 14 62 0
1 14 68 0
1 15 25 0
1 15 28 0
1 15 37 0
1 15 38 0
1 15 39 0
1 15 44 0
1 16 23 0
1 16 29 0
1 16 40 0
1 16 43 0
1 16 46 0
1 16 48 0
1 16 57 0
1 16 69 0
1 17 29 0
1 17 30 0
1 17 68 0
1 17 72 0
1 18 28 0
1 18 50 0
1 18 58 0
1 18 62 0
1 19 31 0
1 19 62 0
1 20 40 0
1 20 47 0
1 20 64 0
1 20 73 0
1 21 36 0
1 21 58 0
1 22 37 0
1 22 58 0
1 22 69 0
1 23 50 0
1 23 52 0
1 23 70 0
1 23 71 0
1 24 27 0
1 24 32 0
1 24 34 0
1 24 35 0
1 24 54 0
1 24 67 0
1 25 34 0
1 25 47 0
1 25 57 0
1 25 71 0
1 26 29 0
1 26 59 0
1 27 38 0
1 27 53 0
1 27 73 0
1 28 40 0
1 28 74 0
1 29 37 0
1 29 46 0
1 29 72 0
1 29 74 0
1 30 58 0
1 30 69 0
1 30 75 0
1 31 35 0
1 31 47 0
1 31 63 0
1 31 73 0
1 32 55 0
1 32 65 0
1 32 67 0
1 32 68 0
1 32 74 0
1 33 40 0
1 33 49 0
1 33 57 0
1 33 63 0
1 33 72 0
1 34 35 0
1 34 40 0
1 34 52 0
1 34 55 0
1 34 72 0
1 35 55 0
1 35 67 0
1 36 38 0
1 36 39 0
1 36 44 0
1 36 50 0
1 37 38 0
1 37 58 0
1 37 62 0
1 38 72 0
1 39 63 0
1 40 41 0
1 40 52 0
1 41 44 0
1 41 60 0
1 42 44 0
1 42 49 0
1 42 55 0
1 43 44 0
1 43 49 0
1 43 61 0
1 43 70 0
1 45 57 0
1 45 61 0
1 46 58 0
1 46 69 0
1 47 56 0
1 47 72 0
1 49 55 0
1 49 56 0
1 49 61 0
1 49 65 0
1 51 56 0
1 52 71 0
1 53 62 0
1 53 63 0
1 53 64 0
1 53 74 0
1 54 58 0
1 54 62 0
1 54 65 0
1 54 69 0
1 54 72 0
1 56 69 0
1 56 70 0
1 57 61 0
1 60 74 0
1 62 66 0
1 63 64 0
1 70 74 0
